191
131
122
164
198
95
118
115
233
199
190
61
69
89
164
113
51
85
121
51
90
148
142
78
93
70
165
71
122
61
87
128
189
301
85
107
68
99
161
159
0
179
205
167
183
40
220
302
206
115
99
90
90
105
138
196
102
107
156
162
277
126
128
103
121
46
69
243
131
176
240
80
114
146
73
110
83
108
198
105
118
212
78
122
211
317
85
125
207
78
91
84
133
81
128
241
147
113
122
176
